Grasp exp. instance_n_25_m_5_id_1.lp tipoLifted 0 szPool 5 nIteration 50 alpha 1 
Academic license - for non-commercial use only
Read LP format model from file ../input/instancesGenerated/instance_n_25_m_5_id_1.lp
Reading time = 0.00 seconds
: 5 rows, 25 columns, 125 nonzeros
Optimize a model with 5 rows, 25 columns and 125 nonzeros
Variable types: 0 continuous, 25 integer (25 binary)
Coefficient statistics:
  Matrix range     [1e+00, 1e+01]
  Objective range  [1e+00, 1e+01]
  Bounds range     [1e+00, 1e+00]
  RHS range        [5e+01, 8e+01]
Found heuristic solution: objective 48.0000000

Explored 0 nodes (0 simplex iterations) in 0.00 seconds
Thread count was 1 (of 8 available processors)

Solution count 1: 48 
No other solutions better than 0

Solution limit reached
Best objective 4.800000000000e+01, best bound -, gap -
C_1:	 9.00 x_1  = 1.000000 + 5.00 x_2  = 1.000000 + 9.00 x_3  = 0.000000 + 8.00 x_4  = 1.000000 + 9.00 x_5  = 0.000000 + 5.00 x_6  = 0.000000 + 6.00 x_7  = 0.000000 + 5.00 x_8  = 1.000000 + 7.00 x_9  = 0.000000 + 10.00 x_10  = 0.000000 + 5.00 x_11  = 1.000000 + 1.00 x_12  = 0.000000 + 3.00 x_13  = 0.000000 + 2.00 x_14  = 1.000000 + 4.00 x_15  = 1.000000 + 5.00 x_16  = 0.000000 + 2.00 x_17  = 1.000000 + 7.00 x_18  = 0.317073 + 7.00 x_19  = 0.707317 + 7.00 x_20  = 1.000000 + 9.00 x_21  = 0.000000 + 9.00 x_22  = 1.000000 + 4.00 x_23  = 1.000000 + 2.00 x_24  = 0.000000 + 4.00 x_25  = 1.000000 <= 72.00
C_2:	 3.00 x_1  = 1.000000 + 2.00 x_2  = 1.000000 + 5.00 x_3  = 0.000000 + 7.00 x_4  = 1.000000 + 5.00 x_5  = 0.000000 + 5.00 x_6  = 0.000000 + 5.00 x_7  = 0.000000 + 10.00 x_8  = 1.000000 + 3.00 x_9  = 0.000000 + 4.00 x_10  = 0.000000 + 10.00 x_11  = 1.000000 + 9.00 x_12  = 0.000000 + 9.00 x_13  = 0.000000 + 4.00 x_14  = 1.000000 + 8.00 x_15  = 1.000000 + 10.00 x_16  = 0.000000 + 1.00 x_17  = 1.000000 + 10.00 x_18  = 0.317073 + 4.00 x_19  = 0.707317 + 4.00 x_20  = 1.000000 + 3.00 x_21  = 0.000000 + 8.00 x_22  = 1.000000 + 6.00 x_23  = 1.000000 + 9.00 x_24  = 0.000000 + 6.00 x_25  = 1.000000 <= 75.00
C_3:	 4.00 x_1  = 1.000000 + 9.00 x_2  = 1.000000 + 5.00 x_3  = 0.000000 + 7.00 x_4  = 1.000000 + 10.00 x_5  = 0.000000 + 10.00 x_6  = 0.000000 + 1.00 x_7  = 0.000000 + 3.00 x_8  = 1.000000 + 4.00 x_9  = 0.000000 + 7.00 x_10  = 0.000000 + 8.00 x_11  = 1.000000 + 8.00 x_12  = 0.000000 + 3.00 x_13  = 0.000000 + 9.00 x_14  = 1.000000 + 3.00 x_15  = 1.000000 + 8.00 x_16  = 0.000000 + 8.00 x_17  = 1.000000 + 3.00 x_18  = 0.317073 + 8.00 x_19  = 0.707317 + 3.00 x_20  = 1.000000 + 10.00 x_21  = 0.000000 + 7.00 x_22  = 1.000000 + 5.00 x_23  = 1.000000 + 9.00 x_24  = 0.000000 + 3.00 x_25  = 1.000000 <= 77.00
C_4:	 9.00 x_1  = 1.000000 + 1.00 x_2  = 1.000000 + 10.00 x_3  = 0.000000 + 6.00 x_4  = 1.000000 + 1.00 x_5  = 0.000000 + 6.00 x_6  = 0.000000 + 9.00 x_7  = 0.000000 + 9.00 x_8  = 1.000000 + 10.00 x_9  = 0.000000 + 7.00 x_10  = 0.000000 + 10.00 x_11  = 1.000000 + 9.00 x_12  = 0.000000 + 7.00 x_13  = 0.000000 + 3.00 x_14  = 1.000000 + 2.00 x_15  = 1.000000 + 5.00 x_16  = 0.000000 + 10.00 x_17  = 1.000000 + 2.00 x_18  = 0.317073 + 9.00 x_19  = 0.707317 + 8.00 x_20  = 1.000000 + 6.00 x_21  = 0.000000 + 6.00 x_22  = 1.000000 + 7.00 x_23  = 1.000000 + 8.00 x_24  = 0.000000 + 3.00 x_25  = 1.000000 <= 81.00
C_5:	 9.00 x_1  = 1.000000 + 8.00 x_2  = 1.000000 + 1.00 x_3  = 0.000000 + 4.00 x_4  = 1.000000 + 8.00 x_5  = 0.000000 + 3.00 x_6  = 0.000000 + 4.00 x_7  = 0.000000 + 1.00 x_8  = 1.000000 + 5.00 x_9  = 0.000000 + 9.00 x_10  = 0.000000 + 1.00 x_11  = 1.000000 + 10.00 x_12  = 0.000000 + 7.00 x_13  = 0.000000 + 2.00 x_14  = 1.000000 + 1.00 x_15  = 1.000000 + 3.00 x_16  = 0.000000 + 1.00 x_17  = 1.000000 + 1.00 x_18  = 0.317073 + 1.00 x_19  = 0.707317 + 5.00 x_20  = 1.000000 + 4.00 x_21  = 0.000000 + 5.00 x_22  = 1.000000 + 6.00 x_23  = 1.000000 + 5.00 x_24  = 0.000000 + 3.00 x_25  = 1.000000 <= 53.00
Solution initial: 87.170732 
Number Constraints Used in Cover:5
GRASP Method!
Number cuts repeat: 0
value: 87.170732
Number Constraints Used in Cover:8
GRASP Method!
Number cuts repeat: 0
value: 87.170732
Number Constraints Used in Cover:10
GRASP Method!
Number cuts repeat: 0
value: 87.170732
Number Constraints Used in Cover:15
GRASP Method!
Number cuts repeat: 0
value: 87.170732
Number Constraints Used in Cover:19
GRASP Method!
Number cuts repeat: 0
value: 87.170732
Number Constraints Used in Cover:24
GRASP Method!
Number cuts repeat: 0
value: 87.170732
Number Constraints Used in Cover:26
GRASP Method!
Number cuts repeat: 0
value: 87.170732
Number Constraints Used in Cover:28
GRASP Method!
Number cuts repeat: 0
value: 87.170732
Number Constraints Used in Cover:30
GRASP Method!
Number cuts repeat: 0
value: 87.170732
Number Constraints Used in Cover:33
GRASP Method!
Number cuts repeat: 0
value: 87.170732
Number Constraints Used in Cover:37
GRASP Method!
Number cuts repeat: 0
value: 87.170732
Number Constraints Used in Cover:41
GRASP Method!
Number cuts repeat: 0
value: 87.170732
Number Constraints Used in Cover:46
GRASP Method!
Number cuts repeat: 0
value: 87.170732
Number Constraints Used in Cover:48
GRASP Method!
Number cuts repeat: 0
value: 87.170732
Number Constraints Used in Cover:52
GRASP Method!
Number cuts repeat: 0
value: 87.170732
Number Constraints Used in Cover:57
GRASP Method!
Number cuts repeat: 0
value: 87.170732
Number Constraints Used in Cover:62
GRASP Method!
Number cuts repeat: 0
value: 87.170732
Number Constraints Used in Cover:67
GRASP Method!
Number cuts repeat: 0
value: 87.170732
Number Constraints Used in Cover:70
GRASP Method!
Number cuts repeat: 0
value: 87.170732
Number Constraints Used in Cover:71
GRASP Method!
Number cuts repeat: 0
value: 87.170732
Number Constraints Used in Cover:72
GRASP Method!
Number cuts repeat: 0
value: 87.170732
Number Constraints Used in Cover:76
GRASP Method!
Number cuts repeat: 0
value: 87.170732
Number Constraints Used in Cover:77
GRASP Method!
Number cuts repeat: 0
value: 87.170732
Number Constraints Used in Cover:80
GRASP Method!
Number cuts repeat: 0
value: 87.170732
Number Constraints Used in Cover:84
GRASP Method!
Number cuts repeat: 0
value: 87.170732
Number Constraints Used in Cover:89
GRASP Method!
Number cuts repeat: 0
value: 87.170732
Number Constraints Used in Cover:92
GRASP Method!
Number cuts repeat: 0
value: 87.170732
Number Constraints Used in Cover:95
GRASP Method!
Number cuts repeat: 0
value: 87.170732
Number Constraints Used in Cover:97
GRASP Method!
Number cuts repeat: 0
value: 87.170732
Number Constraints Used in Cover:102
GRASP Method!
Number cuts repeat: 0
value: 87.170732
Number Constraints Used in Cover:107
GRASP Method!
Number cuts repeat: 0
value: 87.170732
Number Constraints Used in Cover:111
GRASP Method!
Number cuts repeat: 0
value: 87.170732
Number Constraints Used in Cover:116
GRASP Method!
Number cuts repeat: 0
value: 87.170732
Number Constraints Used in Cover:119
GRASP Method!
Number cuts repeat: 0
value: 87.170732
Number Constraints Used in Cover:121
GRASP Method!
Number cuts repeat: 0
value: 87.170732
Number Constraints Used in Cover:126
GRASP Method!
Number cuts repeat: 0
value: 87.170732
Number Constraints Used in Cover:130
GRASP Method!
Number cuts repeat: 0
value: 87.170732
Number Constraints Used in Cover:132
GRASP Method!
Number cuts repeat: 0
value: 87.170732
Number Constraints Used in Cover:137
GRASP Method!
Number cuts repeat: 0
value: 87.170732
Number Constraints Used in Cover:138
GRASP Method!
Number cuts repeat: 0
value: 87.170732
Number Constraints Used in Cover:140
GRASP Method!
Number cuts repeat: 0
value: 87.170732
Number Constraints Used in Cover:143
GRASP Method!
Number cuts repeat: 0
value: 87.170732
Number Constraints Used in Cover:146
GRASP Method!
Number cuts repeat: 0
value: 87.170732
Number Constraints Used in Cover:150
GRASP Method!
Number cuts repeat: 0
value: 87.170732
Number Constraints Used in Cover:152
GRASP Method!
Number cuts repeat: 0
value: 87.170732
Number Constraints Used in Cover:154
GRASP Method!
Number cuts repeat: 0
value: 87.170732
Number Constraints Used in Cover:158
GRASP Method!
Number cuts repeat: 0
value: 87.170732
Number Constraints Used in Cover:161
GRASP Method!
Number cuts repeat: 0
value: 87.170732
Number Constraints Used in Cover:164
GRASP Method!
Number cuts repeat: 0
value: 87.170732
Number Constraints Used in Cover:169
GRASP Method!
Number cuts repeat: 0
value: 87.170732
Number Constraints Used in Cover:174
GRASP Method!
Number cuts repeat: 0
value: 87.170732
Number Constraints Used in Cover:179
GRASP Method!
Number cuts repeat: 0
value: 87.170732
Number Constraints Used in Cover:183
GRASP Method!
Number cuts repeat: 0
value: 87.170732
Number Constraints Used in Cover:185
GRASP Method!
Number cuts repeat: 0
value: 87.170732
Number Constraints Used in Cover:189
GRASP Method!
Number cuts repeat: 0
value: 87.170732
Number Constraints Used in Cover:193
GRASP Method!
Number cuts repeat: 0
value: 87.170732
Number Constraints Used in Cover:195
GRASP Method!
Number cuts repeat: 0
value: 87.170732
Number Constraints Used in Cover:199
GRASP Method!
Number cuts repeat: 0
value: 87.170732
Number Constraints Used in Cover:201
GRASP Method!
Number cuts repeat: 0
value: 87.170732
Number Constraints Used in Cover:204
GRASP Method!
Number cuts repeat: 0
value: 87.170732
Number Constraints Used in Cover:205
GRASP Method!
Number cuts repeat: 0
value: 87.170732
Number Constraints Used in Cover:208
GRASP Method!
Number cuts repeat: 0
value: 87.170732
Number Constraints Used in Cover:210
GRASP Method!
Number cuts repeat: 0
value: 87.170732
Number Constraints Used in Cover:214
GRASP Method!
Number cuts repeat: 0
value: 87.170732
Number Constraints Used in Cover:217
GRASP Method!
Number cuts repeat: 0
value: 87.170732
Number Constraints Used in Cover:219
GRASP Method!
Number cuts repeat: 0
value: 87.170732
Number Constraints Used in Cover:222
GRASP Method!
Number cuts repeat: 0
value: 87.170732
Number Constraints Used in Cover:224
GRASP Method!
Number cuts repeat: 0
value: 87.170732
Number Constraints Used in Cover:225
GRASP Method!
Number cuts repeat: 0
value: 87.170732
Number Constraints Used in Cover:228
GRASP Method!
Number cuts repeat: 0
value: 87.170732
Number Constraints Used in Cover:233
GRASP Method!
Number cuts repeat: 0
value: 87.170732
Number Constraints Used in Cover:235
GRASP Method!
Number cuts repeat: 0
value: 87.170732
Number Constraints Used in Cover:236
GRASP Method!
Number cuts repeat: 0
value: 87.170732
Number Constraints Used in Cover:239
GRASP Method!
Number cuts repeat: 0
value: 87.170732
Number Constraints Used in Cover:244
GRASP Method!
Number cuts repeat: 0
value: 87.170732
Number Constraints Used in Cover:248
GRASP Method!
Number cuts repeat: 0
value: 87.170732
Number Constraints Used in Cover:251
GRASP Method!
Number cuts repeat: 0
value: 87.170732
Number Constraints Used in Cover:253
GRASP Method!
Number cuts repeat: 0
value: 87.170732
Number Constraints Used in Cover:258
GRASP Method!
Number cuts repeat: 0
value: 87.170732
Number Constraints Used in Cover:260
GRASP Method!
Number cuts repeat: 0
value: 87.170732
Number Constraints Used in Cover:265
GRASP Method!
Number cuts repeat: 0
value: 87.170732
Number Constraints Used in Cover:270
GRASP Method!
Number cuts repeat: 0
value: 87.170732
Number Constraints Used in Cover:272
GRASP Method!
Number cuts repeat: 0
value: 87.170732
Number Constraints Used in Cover:276
GRASP Method!
Number cuts repeat: 0
value: 87.170732
Number Constraints Used in Cover:278
GRASP Method!
Number cuts repeat: 0
value: 87.170732
Number Constraints Used in Cover:280
GRASP Method!
Number cuts repeat: 0
value: 87.170732
Number Constraints Used in Cover:283
GRASP Method!
Number cuts repeat: 0
value: 87.170732
Number Constraints Used in Cover:286
GRASP Method!
Number cuts repeat: 0
value: 87.170732
Number Constraints Used in Cover:289
GRASP Method!
Number cuts repeat: 0
value: 87.170732
Number Constraints Used in Cover:294
GRASP Method!
Number cuts repeat: 0
value: 87.170732
Number Constraints Used in Cover:297
GRASP Method!
Number cuts repeat: 0
value: 87.170732
Number Constraints Used in Cover:302
GRASP Method!
Number cuts repeat: 0
value: 87.170732
Number Constraints Used in Cover:306
GRASP Method!
Number cuts repeat: 0
value: 87.170732
Number Constraints Used in Cover:310
GRASP Method!
Number cuts repeat: 0
value: 87.170732
Number Constraints Used in Cover:314
GRASP Method!
Number cuts repeat: 0
value: 87.170732
Number Constraints Used in Cover:316
GRASP Method!
Number cuts repeat: 0
value: 87.170732
Number Constraints Used in Cover:320
GRASP Method!
Number cuts repeat: 0
value: 87.170732
Number Constraints Used in Cover:324
GRASP Method!
Number cuts repeat: 0
value: 87.170732
Number Constraints Used in Cover:325
GRASP Method!
Number cuts repeat: 0
value: 87.170732
Number Constraints Used in Cover:329
GRASP Method!
Number cuts repeat: 0
value: 87.170732
Number Constraints Used in Cover:334
GRASP Method!
Number cuts repeat: 0
value: 87.170732
Number Constraints Used in Cover:338
GRASP Method!
Number cuts repeat: 0
value: 87.170732
Number Constraints Used in Cover:342
GRASP Method!
Number cuts repeat: 0
value: 87.170732
Number Constraints Used in Cover:345
GRASP Method!
Number cuts repeat: 0
value: 87.170732
Number Constraints Used in Cover:349
GRASP Method!
Number cuts repeat: 0
value: 87.170732
Number Constraints Used in Cover:354
GRASP Method!
Number cuts repeat: 0
value: 87.170732
Number Constraints Used in Cover:359
GRASP Method!
Number cuts repeat: 0
value: 87.170732
Number Constraints Used in Cover:361
GRASP Method!
Number cuts repeat: 0
value: 87.170732
Number Constraints Used in Cover:364
GRASP Method!
Number cuts repeat: 0
value: 87.170732
Number Constraints Used in Cover:369
GRASP Method!
Number cuts repeat: 0
value: 87.170732
Number Constraints Used in Cover:374
GRASP Method!
Number cuts repeat: 0
value: 87.170732
Number Constraints Used in Cover:376
GRASP Method!
Number cuts repeat: 0
value: 87.170732
Number Constraints Used in Cover:380
GRASP Method!
Number cuts repeat: 0
value: 87.170732
Number Constraints Used in Cover:381
GRASP Method!
Number cuts repeat: 0
value: 87.170732
Number Constraints Used in Cover:386
GRASP Method!
Number cuts repeat: 0
value: 87.170732
Number Constraints Used in Cover:388
GRASP Method!
Number cuts repeat: 0
value: 87.170732
Number Constraints Used in Cover:392
GRASP Method!
Number cuts repeat: 0
value: 87.170732
Number Constraints Used in Cover:396
GRASP Method!
Number cuts repeat: 0
value: 87.170732
Number Constraints Used in Cover:397
GRASP Method!
Number cuts repeat: 0
value: 87.170732
Number Constraints Used in Cover:400
GRASP Method!
Number cuts repeat: 0
value: 87.170732
Number Constraints Used in Cover:403
GRASP Method!
Number cuts repeat: 0
value: 87.170732
Number Constraints Used in Cover:405
GRASP Method!
Number cuts repeat: 0
value: 87.170732
Number Constraints Used in Cover:408
GRASP Method!
Number cuts repeat: 0
value: 87.170732
Number Constraints Used in Cover:410
GRASP Method!
Number cuts repeat: 0
value: 87.170732
Number Constraints Used in Cover:413
GRASP Method!
Number cuts repeat: 0
value: 87.170732
Number Constraints Used in Cover:416
GRASP Method!
Number cuts repeat: 0
value: 87.170732
Number Constraints Used in Cover:420
GRASP Method!
Number cuts repeat: 0
value: 87.170732
Number Constraints Used in Cover:425
GRASP Method!
Number cuts repeat: 0
value: 87.170732
Number Constraints Used in Cover:426
GRASP Method!
Number cuts repeat: 0
value: 87.170732
Number Constraints Used in Cover:428
GRASP Method!
Number cuts repeat: 0
value: 87.170732
Number Constraints Used in Cover:433
GRASP Method!
Number cuts repeat: 0
value: 87.170732
Number Constraints Used in Cover:436
GRASP Method!
Number cuts repeat: 0
value: 87.170732
Number Constraints Used in Cover:438
GRASP Method!
Number cuts repeat: 0
value: 87.170732
Number Constraints Used in Cover:441
GRASP Method!
Number cuts repeat: 0
value: 87.170732
Number Constraints Used in Cover:446
GRASP Method!
Number cuts repeat: 0
value: 87.170732
Number Constraints Used in Cover:448
GRASP Method!
Number cuts repeat: 0
value: 87.170732
Number Constraints Used in Cover:450
GRASP Method!
Number cuts repeat: 0
value: 87.170732
Number Constraints Used in Cover:451
GRASP Method!
Number cuts repeat: 0
value: 87.170732
Number Constraints Used in Cover:456
GRASP Method!
Number cuts repeat: 0
value: 87.170732
Number Constraints Used in Cover:458
GRASP Method!
Number cuts repeat: 0
value: 87.170732
Number Constraints Used in Cover:463
GRASP Method!
Number cuts repeat: 0
value: 87.170732
Number Constraints Used in Cover:463
GRASP Method!
Number cuts repeat: 0
value: 87.170732
Number Constraints Used in Cover:466
GRASP Method!
Number cuts repeat: 0
value: 87.170732
Number Constraints Used in Cover:468
GRASP Method!
Number cuts repeat: 0
value: 87.170732
Number Constraints Used in Cover:472
GRASP Method!
Number cuts repeat: 0
value: 87.170732
Number Constraints Used in Cover:474
GRASP Method!
Number cuts repeat: 0
value: 87.170732
Number Constraints Used in Cover:477
GRASP Method!
Number cuts repeat: 0
value: 87.170732
Number Constraints Used in Cover:478
GRASP Method!
Number cuts repeat: 0
value: 87.170732
Number Constraints Used in Cover:480
GRASP Method!
Number cuts repeat: 0
value: 87.170732
Number Constraints Used in Cover:485
GRASP Method!
Number cuts repeat: 0
value: 87.170732
Number Constraints Used in Cover:489
GRASP Method!
Number cuts repeat: 0
value: 87.170732
Number Constraints Used in Cover:490
GRASP Method!
Number cuts repeat: 0
value: 87.170732
Number Constraints Used in Cover:492
GRASP Method!
Number cuts repeat: 0
value: 87.170732
Number Constraints Used in Cover:495
GRASP Method!
Number cuts repeat: 0
value: 87.170732
Number Constraints Used in Cover:500
GRASP Method!
Number cuts repeat: 0
value: 87.170732
Number Constraints Used in Cover:502
GRASP Method!
Number cuts repeat: 0
value: 87.170732
Number Constraints Used in Cover:505
GRASP Method!
Number cuts repeat: 0
value: 87.170732
Number Constraints Used in Cover:508
GRASP Method!
Number cuts repeat: 0
value: 87.170732
Number Constraints Used in Cover:509
GRASP Method!
Number cuts repeat: 0
value: 87.170732
Number Constraints Used in Cover:511
GRASP Method!
Number cuts repeat: 0
value: 87.170732
Number Constraints Used in Cover:516
GRASP Method!
Number cuts repeat: 0
value: 87.170732
Number Constraints Used in Cover:521
GRASP Method!
Number cuts repeat: 0
value: 87.170732
Number Constraints Used in Cover:523
GRASP Method!
Number cuts repeat: 0
value: 87.170732
Number Constraints Used in Cover:528
GRASP Method!
Number cuts repeat: 0
value: 87.170732
Number Constraints Used in Cover:532
GRASP Method!
Number cuts repeat: 0
value: 87.170732
Number Constraints Used in Cover:534
GRASP Method!
Number cuts repeat: 0
value: 87.170732
Number Constraints Used in Cover:537
GRASP Method!
Number cuts repeat: 0
value: 87.170732
Number Constraints Used in Cover:542
GRASP Method!
Number cuts repeat: 0
value: 87.170732
Number Constraints Used in Cover:547
GRASP Method!
Number cuts repeat: 0
value: 87.170732
Number Constraints Used in Cover:550
GRASP Method!
Number cuts repeat: 0
value: 87.170732
Number Constraints Used in Cover:554
GRASP Method!
Number cuts repeat: 0
value: 87.170732
Number Constraints Used in Cover:556
GRASP Method!
Number cuts repeat: 0
value: 87.170732
Number Constraints Used in Cover:558
GRASP Method!
Number cuts repeat: 0
value: 87.170732
Number Constraints Used in Cover:560
GRASP Method!
Number cuts repeat: 0
value: 87.170732
Number Constraints Used in Cover:565
GRASP Method!
Number cuts repeat: 0
value: 87.170732
Number Constraints Used in Cover:569
GRASP Method!
Number cuts repeat: 0
value: 87.170732
Number Constraints Used in Cover:572
GRASP Method!
Number cuts repeat: 0
value: 87.170732
Number Constraints Used in Cover:575
GRASP Method!
Number cuts repeat: 0
value: 87.170732
Number Constraints Used in Cover:578
GRASP Method!
Number cuts repeat: 0
value: 87.170732
Number Constraints Used in Cover:581
GRASP Method!
Number cuts repeat: 0
value: 87.170732
Number Constraints Used in Cover:583
GRASP Method!
Number cuts repeat: 0
value: 87.170732
Number Constraints Used in Cover:585
GRASP Method!
Number cuts repeat: 0
value: 87.170732
Number Constraints Used in Cover:589
GRASP Method!
Number cuts repeat: 0
value: 87.170732
Number Constraints Used in Cover:591
GRASP Method!
Number cuts repeat: 0
value: 87.170732
Number Constraints Used in Cover:593
GRASP Method!
Number cuts repeat: 0
value: 87.170732
Number Constraints Used in Cover:598
GRASP Method!
Number cuts repeat: 0
value: 87.170732
Number Cuts Final: 596
